n = 123;
rows = 282;
supports = [|
  {1},2..20,
 |{1},105..123,
 |{2},{1},
 |{2},3..21,
 |{2},106..123,
 |{3},1..2,
 |{3},4..22,
 |{3},107..123,
 |{4},1..3,
 |{4},5..23,
 |{4},108..123,
 |{5},1..4,
 |{5},6..24,
 |{5},109..123,
 |{6},1..5,
 |{6},7..25,
 |{6},110..123,
 |{7},1..6,
 |{7},8..26,
 |{7},111..123,
 |{8},1..7,
 |{8},9..27,
 |{8},112..123,
 |{9},1..8,
 |{9},10..28,
 |{9},113..123,
 |{10},1..9,
 |{10},11..29,
 |{10},114..123,
 |{11},1..10,
 |{11},12..30,
 |{11},115..123,
 |{12},1..11,
 |{12},13..31,
 |{12},116..123,
 |{13},1..12,
 |{13},14..32,
 |{13},117..123,
 |{14},1..13,
 |{14},15..33,
 |{14},118..123,
 |{15},1..14,
 |{15},16..34,
 |{15},119..123,
 |{16},1..15,
 |{16},17..35,
 |{16},120..123,
 |{17},1..16,
 |{17},18..36,
 |{17},121..123,
 |{18},1..17,
 |{18},19..37,
 |{18},122..123,
 |{19},1..18,
 |{19},20..38,
 |{19},{123},
 |{20},1..19,
 |{20},21..39,
 |{21},2..20,
 |{21},22..40,
 |{22},3..21,
 |{22},23..41,
 |{23},4..22,
 |{23},24..42,
 |{24},5..23,
 |{24},25..43,
 |{25},6..24,
 |{25},26..44,
 |{26},7..25,
 |{26},27..45,
 |{27},8..26,
 |{27},28..46,
 |{28},9..27,
 |{28},29..47,
 |{29},10..28,
 |{29},30..48,
 |{30},11..29,
 |{30},31..49,
 |{31},12..30,
 |{31},32..50,
 |{32},13..31,
 |{32},33..51,
 |{33},14..32,
 |{33},34..52,
 |{34},15..33,
 |{34},35..53,
 |{35},16..34,
 |{35},36..54,
 |{36},17..35,
 |{36},37..55,
 |{37},18..36,
 |{37},38..56,
 |{38},19..37,
 |{38},39..57,
 |{39},20..38,
 |{39},40..58,
 |{40},21..39,
 |{40},41..59,
 |{41},22..40,
 |{41},42..60,
 |{42},23..41,
 |{42},43..61,
 |{43},24..42,
 |{43},44..62,
 |{44},25..43,
 |{44},45..63,
 |{45},26..44,
 |{45},46..64,
 |{46},27..45,
 |{46},47..65,
 |{47},28..46,
 |{47},48..66,
 |{48},29..47,
 |{48},49..67,
 |{49},30..48,
 |{49},50..68,
 |{50},31..49,
 |{50},51..69,
 |{51},32..50,
 |{51},52..70,
 |{52},33..51,
 |{52},53..71,
 |{53},34..52,
 |{53},54..72,
 |{54},35..53,
 |{54},55..73,
 |{55},36..54,
 |{55},56..74,
 |{56},37..55,
 |{56},57..75,
 |{57},38..56,
 |{57},58..76,
 |{58},39..57,
 |{58},59..77,
 |{59},40..58,
 |{59},60..78,
 |{60},41..59,
 |{60},61..79,
 |{61},42..60,
 |{61},62..80,
 |{62},43..61,
 |{62},63..81,
 |{63},44..62,
 |{63},64..82,
 |{64},45..63,
 |{64},65..83,
 |{65},46..64,
 |{65},66..84,
 |{66},47..65,
 |{66},67..85,
 |{67},48..66,
 |{67},68..86,
 |{68},49..67,
 |{68},69..87,
 |{69},50..68,
 |{69},70..88,
 |{70},51..69,
 |{70},71..89,
 |{71},52..70,
 |{71},72..90,
 |{72},53..71,
 |{72},73..91,
 |{73},54..72,
 |{73},74..92,
 |{74},55..73,
 |{74},75..93,
 |{75},56..74,
 |{75},76..94,
 |{76},57..75,
 |{76},77..95,
 |{77},58..76,
 |{77},78..96,
 |{78},59..77,
 |{78},79..97,
 |{79},60..78,
 |{79},80..98,
 |{80},61..79,
 |{80},81..99,
 |{81},62..80,
 |{81},82..100,
 |{82},63..81,
 |{82},83..101,
 |{83},64..82,
 |{83},84..102,
 |{84},65..83,
 |{84},85..103,
 |{85},66..84,
 |{85},86..104,
 |{86},67..85,
 |{86},87..105,
 |{87},68..86,
 |{87},88..106,
 |{88},69..87,
 |{88},89..107,
 |{89},70..88,
 |{89},90..108,
 |{90},71..89,
 |{90},91..109,
 |{91},72..90,
 |{91},92..110,
 |{92},73..91,
 |{92},93..111,
 |{93},74..92,
 |{93},94..112,
 |{94},75..93,
 |{94},95..113,
 |{95},76..94,
 |{95},96..114,
 |{96},77..95,
 |{96},97..115,
 |{97},78..96,
 |{97},98..116,
 |{98},79..97,
 |{98},99..117,
 |{99},80..98,
 |{99},100..118,
 |{100},81..99,
 |{100},101..119,
 |{101},82..100,
 |{101},102..120,
 |{102},83..101,
 |{102},103..121,
 |{103},84..102,
 |{103},104..122,
 |{104},85..103,
 |{104},105..123,
 |{105},86..104,
 |{105},106..123,
 |{105},{1},
 |{106},87..105,
 |{106},107..123,
 |{106},1..2,
 |{107},88..106,
 |{107},108..123,
 |{107},1..3,
 |{108},89..107,
 |{108},109..123,
 |{108},1..4,
 |{109},90..108,
 |{109},110..123,
 |{109},1..5,
 |{110},91..109,
 |{110},111..123,
 |{110},1..6,
 |{111},92..110,
 |{111},112..123,
 |{111},1..7,
 |{112},93..111,
 |{112},113..123,
 |{112},1..8,
 |{113},94..112,
 |{113},114..123,
 |{113},1..9,
 |{114},95..113,
 |{114},115..123,
 |{114},1..10,
 |{115},96..114,
 |{115},116..123,
 |{115},1..11,
 |{116},97..115,
 |{116},117..123,
 |{116},1..12,
 |{117},98..116,
 |{117},118..123,
 |{117},1..13,
 |{118},99..117,
 |{118},119..123,
 |{118},1..14,
 |{119},100..118,
 |{119},120..123,
 |{119},1..15,
 |{120},101..119,
 |{120},121..123,
 |{120},1..16,
 |{121},102..120,
 |{121},122..123,
 |{121},1..17,
 |{122},103..121,
 |{122},{123},
 |{122},1..18,
 |{123},104..122,
 |{123},1..19 |];

t = 275;

indexes = [|
    0,42,
  | 0,112,
  | 1,10,
  | 1,37,
  | 1,87,
  | 1,91,
  | 1,117,
  | 2,19,
  | 3,9,
  | 3,15,
  | 4,14,
  | 4,18,
  | 4,21,
  | 4,32,
  | 4,34,
  | 4,64,
  | 4,82,
  | 4,84,
  | 4,85,
  | 4,88,
  | 5,40,
  | 5,58,
  | 5,60,
  | 5,110,
  | 6,58,
  | 6,99,
  | 7,26,
  | 7,29,
  | 7,43,
  | 7,118,
  | 8,52,
  | 8,64,
  | 8,70,
  | 8,96,
  | 10,15,
  | 10,22,
  | 10,30,
  | 10,33,
  | 10,50,
  | 10,57,
  | 10,66,
  | 10,72,
  | 10,80,
  | 10,109,
  | 10,112,
  | 11,18,
  | 11,19,
  | 11,49,
  | 11,85,
  | 12,18,
  | 12,28,
  | 12,44,
  | 12,76,
  | 12,81,
  | 13,17,
  | 13,47,
  | 13,68,
  | 13,82,
  | 14,18,
  | 14,20,
  | 14,21,
  | 14,64,
  | 14,68,
  | 14,76,
  | 14,82,
  | 14,84,
  | 14,96,
  | 14,103,
  | 14,114,
  | 15,22,
  | 15,30,
  | 15,50,
  | 15,63,
  | 15,80,
  | 15,94,
  | 15,97,
  | 15,112,
  | 16,70,
  | 17,18,
  | 17,19,
  | 17,28,
  | 17,36,
  | 17,40,
  | 17,47,
  | 17,68,
  | 17,74,
  | 17,82,
  | 17,98,
  | 17,110,
  | 18,19,
  | 18,34,
  | 18,49,
  | 18,82,
  | 18,84,
  | 18,85,
  | 18,108,
  | 19,36,
  | 19,49,
  | 19,74,
  | 19,82,
  | 19,85,
  | 19,110,
  | 20,64,
  | 20,96,
  | 20,114,
  | 21,32,
  | 21,52,
  | 21,64,
  | 22,30,
  | 22,31,
  | 22,33,
  | 22,38,
  | 22,62,
  | 22,66,
  | 22,80,
  | 22,105,
  | 23,37,
  | 24,52,
  | 24,64,
  | 25,69,
  | 25,85,
  | 26,42,
  | 26,109,
  | 26,112,
  | 26,118,
  | 27,115,
  | 28,102,
  | 28,106,
  | 28,120,
  | 29,118,
  | 30,80,
  | 32,34,
  | 32,88,
  | 33,37,
  | 33,38,
  | 33,62,
  | 33,66,
  | 33,68,
  | 33,95,
  | 33,96,
  | 33,105,
  | 33,114,
  | 33,122,
  | 34,69,
  | 34,85,
  | 35,57,
  | 35,89,
  | 35,90,
  | 35,107,
  | 35,109,
  | 36,74,
  | 36,110,
  | 37,53,
  | 37,120,
  | 38,62,
  | 38,70,
  | 38,71,
  | 38,75,
  | 38,83,
  | 38,96,
  | 38,105,
  | 38,114,
  | 39,106,
  | 40,43,
  | 40,47,
  | 40,54,
  | 40,58,
  | 40,60,
  | 40,89,
  | 40,106,
  | 40,109,
  | 40,110,
  | 40,118,
  | 41,110,
  | 42,50,
  | 42,112,
  | 43,58,
  | 43,92,
  | 43,118,
  | 45,70,
  | 46,55,
  | 46,70,
  | 47,54,
  | 47,66,
  | 47,68,
  | 47,82,
  | 47,109,
  | 47,110,
  | 47,118,
  | 48,69,
  | 48,85,
  | 49,85,
  | 50,63,
  | 50,112,
  | 51,98,
  | 52,64,
  | 53,76,
  | 53,86,
  | 53,96,
  | 53,119,
  | 54,109,
  | 54,118,
  | 56,91,
  | 57,77,
  | 57,93,
  | 57,95,
  | 58,60,
  | 58,73,
  | 58,92,
  | 58,110,
  | 58,111,
  | 58,118,
  | 59,108,
  | 60,110,
  | 61,95,
  | 61,96,
  | 61,103,
  | 61,104,
  | 61,113,
  | 62,105,
  | 63,94,
  | 63,97,
  | 64,70,
  | 64,96,
  | 64,114,
  | 65,70,
  | 66,68,
  | 66,72,
  | 66,109,
  | 66,112,
  | 66,114,
  | 66,122,
  | 67,76,
  | 68,82,
  | 68,90,
  | 68,109,
  | 68,114,
  | 68,120,
  | 68,122,
  | 69,85,
  | 70,75,
  | 70,83,
  | 70,96,
  | 72,109,
  | 72,112,
  | 73,92,
  | 74,110,
  | 75,83,
  | 75,96,
  | 76,120,
  | 78,106,
  | 79,108,
  | 82,84,
  | 82,114,
  | 83,96,
  | 85,115,
  | 89,98,
  | 89,101,
  | 89,116,
  | 90,95,
  | 90,98,
  | 90,103,
  | 91,106,
  | 91,109,
  | 91,120,
  | 92,111,
  | 95,121,
  | 96,114,
  | 98,108,
  | 100,103,
  | 103,108,
  | 109,112,
  | 109,118,
  | 112,118,
  | 114,122 |];

